GLPSOL: GLPK LP/MIP Solver, v4.52
Parameter(s) specified in the command line:
 --model utils_GLPK/modelos/MTAV.mod --data utils_GLPK/datos/MTAV_pref.dat
 --output utils_GLPK/soluciones/MTAV_inter.sol --log utils_GLPK/logs/ejecucion_primaria.log
Reading model section from utils_GLPK/modelos/MTAV.mod...
utils_GLPK/modelos/MTAV.mod:29: warning: unexpected end of file; missing end statement inserted
29 lines were read
Reading data section from utils_GLPK/datos/MTAV_pref.dat...
utils_GLPK/datos/MTAV_pref.dat:12: warning: final NL missing before end of file
12 lines were read
Generating resultado...
Generating z_menorIgual...
Generating unicaAsignacionCoperativista_mayorIgual...
Generating unicaAsignacionCoperativista_menorIgual...
Generating unicaAsignacionCasa_mayorIgual...
Generating unicaAsignacionCasa_menorIgual...
Model has been successfully generated
GLPK Integer Optimizer, v4.52
16 rows, 10 columns, 49 non-zeros
10 integer variables, 9 of which are binary
Preprocessing...
15 rows, 10 columns, 48 non-zeros
10 integer variables, 9 of which are binary
Scaling...
 A: min|aij| =  1.000e+00  max|aij| =  3.000e+00  ratio =  3.000e+00
Problem data seem to be well scaled
Constructing initial basis...
Size of triangular part is 15
Solving LP relaxation...
GLPK Simplex Optimizer, v4.52
15 rows, 10 columns, 48 non-zeros
      0: obj =   0.000000000e+00  infeas =  6.000e+00 (0)
*    11: obj =   2.000000000e+00  infeas =  6.661e-16 (0)
*    15: obj =   1.666666667e+00  infeas =  0.000e+00 (0)
OPTIMAL LP SOLUTION FOUND
Integer optimization begins...
+    15: mip =     not found yet >=              -inf        (1; 0)
Solution found by heuristic: 2
+    15: mip =   2.000000000e+00 >=     tree is empty   0.0% (0; 1)
INTEGER OPTIMAL SOLUTION FOUND
Time used:   0.0 secs
Memory used: 0.1 Mb (142068 bytes)
Writing MIP solution to `utils_GLPK/soluciones/MTAV_inter.sol'...
